assets/logs/14_10x10_clingo/14_10x10_clingo.solution.log

-----------------------------------------
| 41|  0| 37|  4| 61| 48| 49|  7| 57| 67|
-----------------------------------------
| 35|  6| 43| 50| 47|  9| 59| 65| 51|  5|
-----------------------------------------
|  1| 39| 17|  1|  2| 63| 46| 55| 69| 91|
-----------------------------------------
|  8| 33| 52| 45| 15| 42| 11| 89|  3| 53|
-----------------------------------------
|  0| 19| 22| 31| 54|  1| 85| 44| 66| 71|
-----------------------------------------
| 20| 10| 36| 21| 40| 13| 75|  1| 87| 70|
-----------------------------------------
| 34| 24| 18| 56| 29| 83| 25| 68| 73| 64|
-----------------------------------------
| 12| 86| 28| 38| 23| 58| 80| 77| 72|  1|
-----------------------------------------
| 26| 32| 90| 16| 82| 27| 81| 76| 62|  1|
-----------------------------------------
| 88| 14| 84| 30| 92| 78| 60|  1| 79| 74|
-----------------------------------------

| n = 10 | k = 7 | coverage = 98, 98.0%
 Time 300.0
 Name 14_10x10_clingo

