assets/logs/14_10x10_clingo/14_10x10_clingo.log
clingo version 5.4.0
Reading from ...s/logs/14_10x10_clingo/knights_tour.lp ...
Solving...
Answer: 1
occ(1,9,10) occ(1,5,6) occ(1,3,4) occ(1,8,10) occ(1,10,8) occ(1,6,8) occ(1,3,1) occ(2,3,5) occ(3,4,9) coverage(6)
Optimization: -6
Answer: 2
occ(1,9,10) occ(1,5,6) occ(1,3,4) occ(1,8,10) occ(1,10,8) occ(1,6,8) occ(1,3,1) occ(2,3,5) occ(3,4,9) coverage(8) occ(4,1,4) occ(7,1,8) occ(5,2,10) occ(6,2,2)
Optimization: -8
Answer: 3
occ(1,9,10) occ(1,5,6) occ(1,3,4) occ(1,8,10) occ(1,10,8) occ(1,6,8) occ(1,3,1) occ(2,3,5) occ(3,4,9) coverage(10) occ(4,1,4) occ(7,1,8) occ(5,2,10) occ(6,2,2) occ(9,3,9) occ(8,4,1)
Optimization: -10
Answer: 4
occ(1,9,10) occ(1,5,6) occ(1,3,4) occ(1,8,10) occ(1,10,8) occ(1,6,8) occ(1,3,1) occ(2,3,5) occ(3,4,9) coverage(61) occ(4,1,4) occ(16,1,2) occ(26,1,5) occ(37,1,7) occ(6,2,2) occ(7,2,9) occ(14,2,4) occ(24,2,3) occ(28,2,7) occ(35,2,5) occ(5,3,7) occ(18,3,3) occ(39,3,8) occ(72,3,6) occ(8,4,1) occ(9,4,10) occ(12,4,3) occ(22,4,4) occ(30,4,8) occ(33,4,6) occ(47,4,7) occ(62,4,2) occ(20,5,2) occ(31,5,8) occ(32,5,10) occ(41,5,7) occ(45,5,9) occ(60,5,4) occ(66,5,3) occ(70,5,5) occ(10,6,2) occ(11,6,9) occ(29,6,10) occ(49,6,6) occ(59,6,7) occ(64,6,1) occ(34,7,9) occ(43,7,8) occ(48,7,2) occ(53,7,7) occ(54,7,1) occ(57,7,5) occ(58,7,3) occ(68,7,4) occ(13,8,8) occ(17,8,6) occ(27,8,9) occ(36,8,7) occ(42,8,2) occ(51,8,5) occ(52,8,3) occ(19,9,4) occ(23,9,8) occ(38,9,5) occ(46,9,3) occ(50,9,1) occ(55,9,6) occ(56,9,2) occ(15,10,7) occ(21,10,6) occ(25,10,10) occ(40,10,3) occ(44,10,1)
Optimization: -61
Answer: 5
occ(1,9,10) occ(1,5,6) occ(1,3,4) occ(1,8,10) occ(1,10,8) occ(1,6,8) occ(1,3,1) occ(2,3,5) occ(3,4,9) coverage(62) occ(6,1,5) occ(10,1,9) occ(29,1,7) occ(4,2,3) occ(8,2,7) occ(27,2,9) occ(33,2,4) occ(51,2,1) occ(12,3,8) occ(19,3,10) occ(31,3,6) occ(53,3,3) occ(67,3,2) occ(14,4,6) occ(20,4,7) occ(21,4,8) occ(24,4,5) occ(25,4,10) occ(35,4,3) occ(49,4,2) occ(7,5,8) occ(17,5,9) occ(18,5,5) occ(26,5,7) occ(47,5,4) occ(55,5,2) occ(65,5,1) occ(69,5,3) occ(5,6,10) occ(16,6,7) occ(22,6,6) occ(23,6,9) occ(37,6,4) occ(45,6,2) occ(63,6,3) occ(71,6,1) occ(9,7,9) occ(15,7,10) occ(28,7,8) occ(34,7,7) occ(39,7,2) occ(44,7,6) occ(57,7,1) occ(58,7,3) occ(61,7,5) occ(11,8,7) occ(32,8,9) occ(42,8,4) occ(43,8,1) occ(46,8,8) occ(50,8,6) occ(59,8,3) occ(60,8,5) occ(73,8,2) occ(13,9,9) occ(30,9,7) occ(36,9,6) occ(40,9,2) occ(41,9,3) occ(52,9,8) occ(56,9,4) occ(77,9,5) occ(38,10,4) occ(48,10,7) occ(54,10,6) occ(75,10,3)
Optimization: -62
Answer: 6
occ(1,9,10) occ(1,5,6) occ(1,3,4) occ(1,8,10) occ(1,10,8) occ(1,6,8) occ(1,3,1) occ(2,3,5) occ(3,4,9) coverage(66) occ(6,1,5) occ(10,1,9) occ(29,1,7) occ(4,2,3) occ(8,2,7) occ(27,2,9) occ(33,2,4) occ(51,2,1) occ(12,3,8) occ(19,3,10) occ(31,3,6) occ(53,3,3) occ(67,3,2) occ(14,4,6) occ(20,4,7) occ(21,4,8) occ(24,4,5) occ(25,4,10) occ(35,4,3) occ(49,4,2) occ(7,5,8) occ(17,5,9) occ(18,5,5) occ(26,5,7) occ(47,5,4) occ(55,5,2) occ(65,5,1) occ(69,5,3) occ(5,6,10) occ(16,6,7) occ(22,6,6) occ(23,6,9) occ(37,6,4) occ(45,6,2) occ(63,6,3) occ(71,6,1) occ(9,7,9) occ(15,7,10) occ(28,7,8) occ(34,7,7) occ(39,7,2) occ(43,7,4) occ(44,7,6) occ(57,7,1) occ(58,7,3) occ(61,7,5) occ(11,8,7) occ(32,8,9) occ(42,8,4) occ(46,8,8) occ(50,8,6) occ(56,8,1) occ(59,8,3) occ(60,8,5) occ(73,8,2) occ(13,9,9) occ(30,9,7) occ(36,9,6) occ(40,9,2) occ(41,9,3) occ(52,9,4) occ(64,9,8) occ(77,9,5) occ(38,10,4) occ(48,10,7) occ(54,10,2) occ(62,10,6) occ(75,10,3)
Optimization: -66
Answer: 7
occ(1,9,10) occ(1,5,6) occ(1,3,4) occ(1,8,10) occ(1,10,8) occ(1,6,8) occ(1,3,1) occ(2,3,5) occ(3,4,9) coverage(68) occ(6,1,5) occ(10,1,9) occ(29,1,7) occ(4,2,3) occ(8,2,7) occ(27,2,9) occ(33,2,4) occ(51,2,1) occ(12,3,8) occ(19,3,10) occ(31,3,6) occ(53,3,3) occ(67,3,2) occ(14,4,6) occ(20,4,7) occ(21,4,8) occ(24,4,5) occ(25,4,10) occ(35,4,3) occ(49,4,2) occ(7,5,8) occ(17,5,9) occ(18,5,5) occ(26,5,7) occ(47,5,4) occ(55,5,2) occ(65,5,1) occ(69,5,3) occ(5,6,10) occ(16,6,7) occ(22,6,6) occ(23,6,9) occ(37,6,4) occ(45,6,2) occ(63,6,3) occ(71,6,1) occ(9,7,9) occ(15,7,10) occ(28,7,8) occ(34,7,7) occ(39,7,2) occ(43,7,4) occ(44,7,6) occ(57,7,1) occ(58,7,3) occ(61,7,5) occ(11,8,7) occ(32,8,9) occ(42,8,4) occ(46,8,8) occ(50,8,6) occ(56,8,1) occ(59,8,3) occ(60,8,5) occ(73,8,2) occ(13,9,9) occ(30,9,7) occ(36,9,6) occ(40,9,2) occ(41,9,3) occ(52,9,4) occ(64,9,8) occ(77,9,5) occ(38,10,4) occ(48,10,7) occ(54,10,2) occ(62,10,6) occ(66,10,10) occ(75,10,3)
Optimization: -68
Answer: 8
occ(1,9,10) occ(1,5,6) occ(1,3,4) occ(1,8,10) occ(1,10,8) occ(1,6,8) occ(1,3,1) occ(2,3,5) occ(3,4,9) coverage(72) occ(6,1,5) occ(10,1,9) occ(29,1,7) occ(51,1,4) occ(70,1,3) occ(4,2,3) occ(8,2,7) occ(22,2,6) occ(27,2,9) occ(33,2,4) occ(49,2,2) occ(68,2,1) occ(12,3,8) occ(19,3,10) occ(31,3,6) occ(53,3,3) occ(67,3,2) occ(14,4,6) occ(20,4,7) occ(21,4,8) occ(24,4,5) occ(25,4,10) occ(35,4,3) occ(47,4,1) occ(66,4,2) occ(7,5,8) occ(17,5,9) occ(18,5,5) occ(26,5,7) occ(55,5,2) occ(64,5,4) occ(65,5,1) occ(69,5,3) occ(5,6,10) occ(16,6,7) occ(23,6,9) occ(37,6,4) occ(45,6,2) occ(62,6,6) occ(63,6,3) occ(71,6,1) occ(9,7,9) occ(15,7,10) occ(28,7,8) occ(34,7,7) occ(39,7,2) occ(43,7,4) occ(44,7,6) occ(57,7,1) occ(58,7,3) occ(61,7,5) occ(11,8,7) occ(32,8,9) occ(42,8,4) occ(46,8,8) occ(50,8,6) occ(56,8,1) occ(59,8,3) occ(60,8,5) occ(73,8,2) occ(13,9,9) occ(30,9,7) occ(36,9,6) occ(40,9,2) occ(41,9,3) occ(52,9,4) occ(77,9,5) occ(38,10,4) occ(48,10,7) occ(54,10,2) occ(75,10,3)
Optimization: -72
Answer: 9
occ(1,9,10) occ(1,5,6) occ(1,3,4) occ(1,8,10) occ(1,10,8) occ(1,6,8) occ(1,3,1) occ(2,3,5) occ(3,4,9) coverage(76) occ(6,1,5) occ(10,1,9) occ(29,1,7) occ(51,1,4) occ(70,1,3) occ(4,2,3) occ(8,2,7) occ(22,2,6) occ(27,2,9) occ(33,2,4) occ(49,2,2) occ(68,2,1) occ(72,2,5) occ(12,3,8) occ(19,3,10) occ(31,3,6) occ(53,3,3) occ(67,3,2) occ(14,4,6) occ(20,4,7) occ(21,4,8) occ(24,4,5) occ(25,4,10) occ(35,4,3) occ(47,4,1) occ(66,4,2) occ(74,4,4) occ(7,5,8) occ(17,5,9) occ(18,5,5) occ(26,5,7) occ(55,5,2) occ(64,5,4) occ(65,5,1) occ(69,5,3) occ(5,6,10) occ(16,6,7) occ(23,6,9) occ(37,6,4) occ(45,6,2) occ(62,6,6) occ(63,6,3) occ(71,6,1) occ(9,7,9) occ(15,7,10) occ(28,7,8) occ(34,7,7) occ(39,7,2) occ(43,7,4) occ(44,7,6) occ(57,7,1) occ(58,7,3) occ(61,7,5) occ(11,8,7) occ(32,8,9) occ(42,8,4) occ(46,8,8) occ(50,8,6) occ(56,8,1) occ(59,8,3) occ(60,8,5) occ(73,8,2) occ(13,9,9) occ(30,9,7) occ(36,9,6) occ(40,9,2) occ(41,9,3) occ(52,9,4) occ(77,9,5) occ(38,10,4) occ(48,10,7) occ(54,10,2) occ(75,10,3)
Optimization: -76
Answer: 10
occ(1,9,10) occ(1,5,6) occ(1,3,4) occ(1,8,10) occ(1,10,8) occ(1,6,8) occ(1,3,1) occ(2,3,5) occ(3,4,9) coverage(78) occ(6,1,5) occ(10,1,9) occ(29,1,7) occ(51,1,4) occ(70,1,3) occ(4,2,3) occ(8,2,7) occ(22,2,6) occ(27,2,9) occ(33,2,4) occ(49,2,2) occ(68,2,1) occ(72,2,5) occ(12,3,8) occ(19,3,10) occ(31,3,6) occ(53,3,3) occ(67,3,2) occ(14,4,6) occ(20,4,7) occ(21,4,8) occ(24,4,5) occ(25,4,10) occ(35,4,3) occ(47,4,1) occ(66,4,2) occ(74,4,4) occ(7,5,8) occ(17,5,9) occ(18,5,5) occ(26,5,7) occ(55,5,2) occ(64,5,4) occ(65,5,1) occ(69,5,3) occ(5,6,10) occ(16,6,7) occ(23,6,9) occ(37,6,4) occ(45,6,2) occ(62,6,6) occ(63,6,3) occ(71,6,1) occ(76,6,5) occ(9,7,9) occ(15,7,10) occ(28,7,8) occ(34,7,7) occ(39,7,2) occ(43,7,4) occ(44,7,6) occ(57,7,1) occ(58,7,3) occ(61,7,5) occ(11,8,7) occ(32,8,9) occ(42,8,4) occ(46,8,8) occ(50,8,6) occ(56,8,1) occ(59,8,3) occ(60,8,5) occ(73,8,2) occ(13,9,9) occ(30,9,7) occ(36,9,6) occ(40,9,2) occ(41,9,3) occ(52,9,4) occ(77,9,5) occ(38,10,4) occ(48,10,7) occ(54,10,2) occ(75,10,3)
Optimization: -78
Answer: 11
occ(1,9,10) occ(1,5,6) occ(1,3,4) occ(1,8,10) occ(1,10,8) occ(1,6,8) occ(1,3,1) occ(2,3,5) occ(3,4,9) coverage(80) occ(6,1,5) occ(10,1,9) occ(29,1,7) occ(51,1,4) occ(70,1,3) occ(76,1,8) occ(4,2,3) occ(8,2,7) occ(22,2,6) occ(27,2,9) occ(33,2,4) occ(49,2,2) occ(68,2,1) occ(72,2,5) occ(78,2,10) occ(12,3,8) occ(19,3,10) occ(31,3,6) occ(53,3,3) occ(67,3,2) occ(74,3,7) occ(14,4,6) occ(20,4,7) occ(21,4,8) occ(24,4,5) occ(25,4,10) occ(35,4,3) occ(47,4,1) occ(66,4,2) occ(7,5,8) occ(17,5,9) occ(18,5,5) occ(26,5,7) occ(55,5,2) occ(64,5,4) occ(65,5,1) occ(69,5,3) occ(5,6,10) occ(16,6,7) occ(23,6,9) occ(37,6,4) occ(45,6,2) occ(62,6,6) occ(63,6,3) occ(71,6,1) occ(9,7,9) occ(15,7,10) occ(28,7,8) occ(34,7,7) occ(39,7,2) occ(44,7,6) occ(57,7,1) occ(58,7,3) occ(61,7,5) occ(79,7,4) occ(11,8,7) occ(32,8,9) occ(42,8,4) occ(43,8,1) occ(46,8,8) occ(50,8,6) occ(59,8,3) occ(60,8,5) occ(73,8,2) occ(13,9,9) occ(30,9,7) occ(36,9,6) occ(40,9,2) occ(41,9,3) occ(52,9,8) occ(56,9,4) occ(77,9,5) occ(38,10,4) occ(48,10,7) occ(54,10,6) occ(75,10,3)
Optimization: -80
Answer: 12
occ(1,9,10) occ(1,5,6) occ(1,3,4) occ(1,8,10) occ(1,10,8) occ(1,6,8) occ(1,3,1) occ(2,3,5) occ(3,4,9) coverage(81) occ(6,1,5) occ(10,1,9) occ(29,1,7) occ(51,1,4) occ(70,1,3) occ(76,1,6) occ(80,1,10) occ(4,2,3) occ(8,2,7) occ(22,2,6) occ(27,2,9) occ(33,2,4) occ(49,2,2) occ(68,2,1) occ(72,2,5) occ(78,2,8) occ(12,3,8) occ(19,3,10) occ(31,3,6) occ(53,3,3) occ(67,3,2) occ(74,3,7) occ(14,4,6) occ(20,4,7) occ(21,4,8) occ(24,4,5) occ(25,4,10) occ(35,4,3) occ(47,4,1) occ(66,4,2) occ(7,5,8) occ(17,5,9) occ(18,5,5) occ(26,5,7) occ(55,5,2) occ(64,5,4) occ(65,5,1) occ(69,5,3) occ(5,6,10) occ(16,6,7) occ(23,6,9) occ(37,6,4) occ(45,6,2) occ(62,6,6) occ(63,6,3) occ(71,6,1) occ(9,7,9) occ(15,7,10) occ(28,7,8) occ(34,7,7) occ(39,7,2) occ(44,7,6) occ(57,7,1) occ(58,7,3) occ(61,7,5) occ(79,7,4) occ(11,8,7) occ(32,8,9) occ(42,8,4) occ(43,8,1) occ(46,8,8) occ(50,8,6) occ(59,8,3) occ(60,8,5) occ(73,8,2) occ(13,9,9) occ(30,9,7) occ(36,9,6) occ(40,9,2) occ(41,9,3) occ(52,9,8) occ(56,9,4) occ(77,9,5) occ(38,10,4) occ(48,10,7) occ(54,10,6) occ(75,10,3)
Optimization: -81
Answer: 13
occ(1,9,10) occ(1,5,6) occ(1,3,4) occ(1,8,10) occ(1,10,8) occ(1,6,8) occ(1,3,1) occ(2,3,5) occ(3,4,9) coverage(84) occ(6,1,5) occ(9,1,7) occ(51,1,4) occ(70,1,3) occ(76,1,6) occ(80,1,10) occ(4,2,7) occ(8,2,3) occ(11,2,9) occ(22,2,6) occ(33,2,4) occ(49,2,2) occ(68,2,1) occ(72,2,5) occ(78,2,8) occ(7,3,6) occ(15,3,10) occ(19,3,8) occ(31,3,2) occ(53,3,3) occ(74,3,7) occ(82,3,9) occ(10,4,4) occ(13,4,8) occ(20,4,7) occ(21,4,10) occ(24,4,5) occ(35,4,3) occ(42,4,6) occ(47,4,1) occ(66,4,2) occ(5,5,7) occ(17,5,9) occ(18,5,5) occ(29,5,3) occ(37,5,1) occ(44,5,8) occ(55,5,2) occ(64,5,4) occ(12,6,3) occ(23,6,9) occ(26,6,4) occ(27,6,5) occ(40,6,7) occ(45,6,2) occ(62,6,6) occ(73,6,10) occ(16,7,4) occ(25,7,7) occ(28,7,6) occ(38,7,5) occ(39,7,2) occ(46,7,9) occ(57,7,1) occ(58,7,3) occ(75,7,8) occ(14,8,2) occ(36,8,3) occ(43,8,1) occ(48,8,7) occ(54,8,6) occ(60,8,5) occ(65,8,4) occ(71,8,9) occ(81,8,8) occ(30,9,5) occ(34,9,1) occ(41,9,3) occ(52,9,8) occ(56,9,4) occ(59,9,2) occ(63,9,6) occ(69,9,7) occ(77,9,9) occ(32,10,3) occ(50,10,6) occ(61,10,4) occ(67,10,5) occ(79,10,7) occ(83,10,9)
Optimization: -84
Answer: 14
occ(1,9,10) occ(1,5,6) occ(1,3,4) occ(1,8,10) occ(1,10,8) occ(1,6,8) occ(1,3,1) occ(2,3,5) occ(3,4,9) coverage(85) occ(6,1,5) occ(9,1,7) occ(51,1,4) occ(70,1,3) occ(76,1,6) occ(80,1,10) occ(4,2,7) occ(8,2,3) occ(11,2,9) occ(22,2,6) occ(33,2,4) occ(49,2,2) occ(68,2,1) occ(72,2,5) occ(78,2,8) occ(7,3,6) occ(15,3,10) occ(19,3,8) occ(31,3,2) occ(53,3,3) occ(74,3,7) occ(82,3,9) occ(10,4,4) occ(13,4,8) occ(20,4,7) occ(21,4,10) occ(24,4,5) occ(35,4,3) occ(42,4,6) occ(47,4,1) occ(66,4,2) occ(5,5,7) occ(17,5,9) occ(18,5,5) occ(29,5,3) occ(37,5,1) occ(44,5,8) occ(55,5,2) occ(64,5,4) occ(84,5,10) occ(12,6,3) occ(23,6,9) occ(26,6,4) occ(27,6,5) occ(40,6,7) occ(45,6,2) occ(62,6,6) occ(73,6,10) occ(16,7,4) occ(25,7,7) occ(28,7,6) occ(38,7,5) occ(39,7,2) occ(46,7,9) occ(57,7,1) occ(58,7,3) occ(75,7,8) occ(14,8,2) occ(36,8,3) occ(43,8,1) occ(48,8,7) occ(54,8,6) occ(60,8,5) occ(65,8,4) occ(71,8,9) occ(81,8,8) occ(30,9,5) occ(34,9,1) occ(41,9,3) occ(52,9,8) occ(56,9,4) occ(59,9,2) occ(63,9,6) occ(69,9,7) occ(77,9,9) occ(32,10,3) occ(50,10,6) occ(61,10,4) occ(67,10,5) occ(79,10,7) occ(83,10,9)
Optimization: -85
Answer: 15
occ(1,9,10) occ(1,5,6) occ(1,3,4) occ(1,8,10) occ(1,10,8) occ(1,6,8) occ(1,3,1) occ(2,3,5) occ(3,4,9) coverage(86) occ(9,1,7) occ(13,1,9) occ(29,1,3) occ(51,1,4) occ(55,1,2) occ(59,1,6) occ(63,1,10) occ(67,1,8) occ(82,1,5) occ(22,2,6) occ(27,2,1) occ(49,2,2) occ(57,2,4) occ(61,2,8) occ(71,2,9) occ(80,2,7) occ(84,2,3) occ(7,3,6) occ(11,3,8) occ(15,3,10) occ(31,3,2) occ(53,3,3) occ(65,3,9) occ(69,3,7) occ(4,4,3) occ(20,4,5) occ(21,4,6) occ(24,4,7) occ(25,4,2) occ(33,4,4) occ(47,4,1) occ(73,4,10) occ(78,4,8) occ(5,5,7) occ(17,5,9) occ(18,5,3) occ(23,5,4) occ(26,5,5) occ(37,5,1) occ(76,5,10) occ(79,5,8) occ(6,6,4) occ(12,6,1) occ(19,6,7) occ(35,6,3) occ(45,6,2) occ(66,6,10) occ(75,6,9) occ(81,6,6) occ(10,7,3) occ(16,7,4) occ(28,7,6) occ(39,7,2) occ(42,7,5) occ(64,7,8) occ(74,7,9) occ(77,7,7) occ(8,8,5) occ(14,8,2) occ(36,8,3) occ(43,8,1) occ(50,8,4) occ(58,8,8) occ(62,8,6) occ(68,8,9) occ(83,8,7) occ(30,9,5) occ(34,9,1) occ(40,9,4) occ(41,9,3) occ(44,9,6) occ(48,9,2) occ(54,9,7) occ(72,9,8) occ(32,10,3) occ(38,10,2) occ(46,10,4) occ(52,10,5) occ(56,10,9) occ(60,10,7) occ(70,10,10) occ(85,10,6)
Optimization: -86
Answer: 16
occ(1,9,10) occ(1,5,6) occ(1,3,4) occ(1,8,10) occ(1,10,8) occ(1,6,8) occ(1,3,1) occ(2,3,5) occ(3,4,9) coverage(87) occ(14,1,5) occ(18,1,9) occ(24,1,4) occ(51,1,10) occ(55,1,6) occ(66,1,3) occ(72,1,2) occ(16,2,7) occ(22,2,6) occ(26,2,2) occ(27,2,3) occ(53,2,8) occ(64,2,5) occ(68,2,1) occ(74,2,4) occ(75,2,9) occ(12,3,6) occ(20,3,8) occ(49,3,9) occ(57,3,7) occ(70,3,3) occ(80,3,2) occ(4,4,3) occ(25,4,2) occ(28,4,1) occ(29,4,4) occ(47,4,7) occ(62,4,6) occ(73,4,8) occ(76,4,5) occ(77,4,10) occ(9,5,9) occ(10,5,7) occ(31,5,2) occ(45,5,5) occ(59,5,8) occ(60,5,4) occ(71,5,10) occ(78,5,3) occ(82,5,1) occ(5,6,10) occ(6,6,4) occ(23,6,1) occ(30,6,2) occ(36,6,3) occ(40,6,5) occ(56,6,7) occ(61,6,6) occ(79,6,9) occ(7,7,8) occ(8,7,6) occ(11,7,10) occ(33,7,3) occ(34,7,1) occ(43,7,4) occ(58,7,5) occ(69,7,9) occ(81,7,7) occ(84,7,2) occ(21,8,2) occ(32,8,3) occ(38,8,4) occ(39,8,1) occ(42,8,6) occ(48,8,9) occ(54,8,8) occ(63,8,5) occ(67,8,7) occ(13,9,9) occ(17,9,5) occ(35,9,4) occ(41,9,3) occ(44,9,8) occ(50,9,7) occ(83,9,6) occ(86,9,1) occ(15,10,7) occ(19,10,3) occ(37,10,2) occ(46,10,10) occ(52,10,9) occ(65,10,6) occ(85,10,4)
Optimization: -87
Answer: 17
occ(1,9,10) occ(1,5,6) occ(1,3,4) occ(1,8,10) occ(1,10,8) occ(1,6,8) occ(1,3,1) occ(2,3,5) occ(3,4,9) coverage(88) occ(14,1,5) occ(18,1,9) occ(24,1,4) occ(51,1,10) occ(55,1,6) occ(66,1,3) occ(72,1,2) occ(16,2,7) occ(22,2,6) occ(26,2,2) occ(27,2,3) occ(53,2,8) occ(64,2,5) occ(68,2,1) occ(74,2,4) occ(75,2,9) occ(12,3,6) occ(20,3,8) occ(49,3,9) occ(57,3,7) occ(70,3,3) occ(80,3,2) occ(4,4,3) occ(25,4,2) occ(28,4,1) occ(29,4,4) occ(47,4,7) occ(62,4,6) occ(73,4,8) occ(76,4,5) occ(77,4,10) occ(9,5,9) occ(10,5,7) occ(31,5,2) occ(45,5,5) occ(59,5,8) occ(60,5,4) occ(71,5,10) occ(78,5,3) occ(82,5,1) occ(5,6,10) occ(6,6,4) occ(23,6,1) occ(30,6,2) occ(36,6,3) occ(40,6,5) occ(56,6,7) occ(61,6,6) occ(79,6,9) occ(7,7,8) occ(8,7,6) occ(11,7,10) occ(33,7,3) occ(34,7,1) occ(43,7,4) occ(58,7,5) occ(69,7,9) occ(81,7,7) occ(84,7,2) occ(21,8,2) occ(32,8,3) occ(38,8,4) occ(39,8,1) occ(42,8,6) occ(48,8,9) occ(54,8,8) occ(63,8,5) occ(67,8,7) occ(13,9,9) occ(17,9,5) occ(35,9,4) occ(41,9,3) occ(44,9,8) occ(50,9,7) occ(83,9,6) occ(86,9,1) occ(87,9,2) occ(15,10,7) occ(19,10,3) occ(37,10,2) occ(46,10,10) occ(52,10,9) occ(65,10,6) occ(85,10,4)
Optimization: -88
Answer: 18
occ(1,9,10) occ(1,5,6) occ(1,3,4) occ(1,8,10) occ(1,10,8) occ(1,6,8) occ(1,3,1) occ(2,3,5) occ(3,4,9) coverage(89) occ(4,1,6) occ(8,1,8) occ(15,1,4) occ(18,1,7) occ(22,1,3) occ(27,1,2) occ(65,1,1) occ(69,1,5) occ(70,1,9) occ(75,1,10) occ(10,2,10) occ(13,2,6) occ(16,2,9) occ(17,2,2) occ(20,2,5) occ(24,2,1) occ(29,2,4) occ(67,2,3) occ(72,2,7) occ(73,2,8) occ(6,3,7) occ(12,3,8) occ(25,3,3) occ(63,3,2) occ(68,3,10) occ(71,3,6) occ(77,3,9) occ(11,4,7) occ(14,4,10) occ(19,4,3) occ(26,4,2) occ(31,4,5) occ(74,4,8) occ(7,5,8) occ(23,5,2) occ(32,5,4) occ(33,5,3) occ(49,5,5) occ(58,5,7) occ(61,5,1) occ(66,5,9) occ(79,5,10) occ(5,6,10) occ(9,6,6) occ(21,6,4) occ(28,6,1) occ(34,6,2) occ(35,6,5) occ(43,6,7) occ(51,6,3) occ(76,6,9) occ(30,7,3) occ(41,7,5) occ(47,7,4) occ(56,7,6) occ(59,7,2) occ(60,7,8) occ(64,7,10) occ(78,7,7) occ(81,7,9) occ(86,7,1) occ(36,8,1) occ(37,8,4) occ(44,8,7) occ(45,8,6) occ(50,8,8) occ(53,8,2) occ(80,8,5) occ(84,8,3) occ(87,8,9) occ(39,9,6) occ(40,9,4) occ(46,9,5) occ(54,9,7) occ(57,9,3) occ(62,9,9) occ(83,9,8) occ(88,9,2) occ(38,10,2) occ(42,10,6) occ(48,10,7) occ(52,10,9) occ(55,10,1) occ(82,10,4) occ(85,10,10)
Optimization: -89
Answer: 19
occ(1,9,10) occ(1,5,6) occ(1,3,4) occ(1,8,10) occ(1,10,8) occ(1,6,8) occ(1,3,1) occ(2,3,5) occ(3,4,9) coverage(90) occ(4,1,6) occ(13,1,7) occ(37,1,1) occ(45,1,3) occ(69,1,9) occ(75,1,10) occ(83,1,4) occ(5,2,10) occ(11,2,9) occ(39,2,3) occ(43,2,1) occ(47,2,5) occ(71,2,7) occ(77,2,8) occ(81,2,6) occ(85,2,2) occ(89,2,4) occ(6,3,7) occ(7,3,8) occ(15,3,6) occ(30,3,3) occ(35,3,2) occ(67,3,10) occ(73,3,9) occ(9,4,10) occ(14,4,8) occ(19,4,5) occ(32,4,1) occ(41,4,2) occ(49,4,4) occ(53,4,6) occ(79,4,7) occ(87,4,3) occ(8,5,8) occ(12,5,10) occ(17,5,7) occ(23,5,2) occ(28,5,4) occ(33,5,3) occ(65,5,9) occ(70,5,1) occ(74,5,5) occ(16,6,9) occ(21,6,4) occ(22,6,10) occ(26,6,6) occ(31,6,1) occ(34,6,2) occ(51,6,5) occ(55,6,7) occ(72,6,3) occ(10,7,9) occ(18,7,7) occ(24,7,8) occ(25,7,1) occ(29,7,3) occ(42,7,5) occ(52,7,4) occ(63,7,10) occ(68,7,2) occ(76,7,6) occ(20,8,9) occ(36,8,1) occ(44,8,7) occ(50,8,6) occ(57,8,8) occ(58,8,2) occ(64,8,3) occ(80,8,5) occ(86,8,4) occ(27,9,2) occ(40,9,4) occ(48,9,8) occ(54,9,3) occ(61,9,9) occ(62,9,5) occ(66,9,1) occ(78,9,7) occ(84,9,6) occ(38,10,2) occ(46,10,6) occ(56,10,1) occ(59,10,7) occ(60,10,3) occ(82,10,4) occ(88,10,5)
Optimization: -90
Answer: 20
occ(1,9,10) occ(1,5,6) occ(1,3,4) occ(1,8,10) occ(1,10,8) occ(1,6,8) occ(1,3,1) occ(2,3,5) occ(3,4,9) coverage(91) occ(4,1,6) occ(8,1,10) occ(21,1,9) occ(29,1,7) occ(70,1,1) occ(71,1,4) occ(74,1,5) occ(81,1,3) occ(87,1,8) occ(6,2,8) occ(27,2,9) occ(33,2,4) occ(69,2,6) occ(72,2,3) occ(73,2,2) occ(76,2,7) occ(79,2,1) occ(83,2,5) occ(89,2,10) occ(10,3,9) occ(19,3,8) occ(23,3,10) occ(31,3,6) occ(68,3,2) occ(77,3,3) occ(85,3,7) occ(12,4,7) occ(25,4,8) occ(35,4,3) occ(41,4,2) occ(66,4,4) occ(67,4,5) occ(75,4,1) occ(78,4,6) occ(82,4,10) occ(14,5,9) occ(17,5,7) occ(39,5,4) occ(45,5,3) occ(49,5,5) occ(55,5,2) occ(62,5,1) occ(80,5,8) occ(5,6,10) occ(15,6,5) occ(37,6,2) occ(43,6,1) occ(52,6,7) occ(53,6,4) occ(64,6,3) occ(65,6,6) occ(84,6,9) occ(16,7,8) occ(20,7,10) occ(47,7,4) occ(50,7,9) occ(51,7,6) occ(54,7,5) occ(57,7,1) occ(60,7,2) occ(61,7,3) occ(86,7,7) occ(7,8,9) occ(13,8,4) occ(22,8,8) occ(26,8,6) occ(36,8,1) occ(42,8,2) occ(48,8,7) occ(56,8,3) occ(63,8,5) occ(9,9,7) occ(18,9,9) occ(28,9,8) occ(32,9,4) occ(38,9,3) occ(46,9,5) occ(58,9,1) occ(59,9,2) occ(88,9,6) occ(11,10,5) occ(24,10,7) occ(30,10,6) occ(34,10,2) occ(40,10,1) occ(44,10,3) occ(90,10,4)
Optimization: -91
Answer: 21
occ(1,9,10) occ(1,5,6) occ(1,3,4) occ(1,8,10) occ(1,10,8) occ(1,6,8) occ(1,3,1) occ(2,3,5) occ(3,4,9) coverage(92) occ(4,1,4) occ(7,1,8) occ(11,1,6) occ(15,1,2) occ(37,1,3) occ(41,1,1) occ(49,1,7) occ(57,1,9) occ(61,1,5) occ(67,1,10) occ(5,2,10) occ(6,2,2) occ(13,2,4) occ(22,2,6) occ(35,2,1) occ(43,2,3) occ(47,2,5) occ(51,2,9) occ(59,2,7) occ(65,2,8) occ(9,3,7) occ(17,3,3) occ(39,3,2) occ(55,3,8) occ(63,3,6) occ(69,3,9) occ(91,3,10) occ(8,4,1) occ(20,4,5) occ(24,4,7) occ(33,4,2) occ(40,4,3) occ(45,4,4) occ(53,4,10) occ(77,4,6) occ(89,4,8) occ(10,5,3) occ(18,5,7) occ(19,5,2) occ(26,5,5) occ(31,5,4) occ(38,5,1) occ(71,5,10) occ(79,5,8) occ(90,5,9) occ(12,6,1) occ(16,6,5) occ(21,6,4) occ(25,6,6) occ(36,6,3) occ(42,6,2) occ(66,6,10) occ(75,6,7) occ(87,6,9) occ(14,7,3) occ(28,7,6) occ(29,7,5) occ(34,7,1) occ(52,7,2) occ(56,7,4) occ(64,7,8) occ(73,7,9) occ(81,7,7) occ(88,7,10) occ(23,8,5) occ(27,8,7) occ(30,8,4) occ(44,8,1) occ(48,8,3) occ(58,8,6) occ(68,8,9) occ(78,8,2) occ(85,8,8) occ(32,9,2) occ(50,9,1) occ(54,9,3) occ(62,9,7) occ(72,9,8) occ(76,9,4) occ(82,9,5) occ(83,9,6) occ(86,9,9) occ(46,10,2) occ(60,10,5) occ(70,10,10) occ(74,10,6) occ(80,10,3) occ(84,10,7)
Optimization: -92
Answer: 22
occ(1,9,10) occ(1,5,6) occ(1,3,4) occ(1,8,10) occ(1,10,8) occ(1,6,8) occ(1,3,1) occ(2,3,5) occ(3,4,9) coverage(93) occ(4,1,4) occ(7,1,8) occ(37,1,3) occ(41,1,1) occ(48,1,6) occ(49,1,7) occ(57,1,9) occ(61,1,5) occ(67,1,10) occ(5,2,10) occ(6,2,2) occ(9,2,6) occ(35,2,1) occ(43,2,3) occ(47,2,5) occ(50,2,4) occ(51,2,9) occ(59,2,7) occ(65,2,8) occ(17,3,3) occ(39,3,2) occ(46,3,7) occ(55,3,8) occ(63,3,6) occ(69,3,9) occ(91,3,10) occ(8,4,1) occ(11,4,7) occ(15,4,5) occ(33,4,2) occ(42,4,6) occ(45,4,4) occ(52,4,3) occ(53,4,10) occ(89,4,8) occ(19,5,2) occ(22,5,3) occ(31,5,4) occ(44,5,8) occ(54,5,5) occ(66,5,9) occ(71,5,10) occ(85,5,7) occ(10,6,2) occ(13,6,6) occ(20,6,1) occ(21,6,4) occ(36,6,3) occ(40,6,5) occ(70,6,10) occ(75,6,7) occ(87,6,9) occ(18,7,3) occ(24,7,2) occ(25,7,7) occ(29,7,5) occ(34,7,1) occ(56,7,4) occ(64,7,10) occ(68,7,8) occ(73,7,9) occ(83,7,6) occ(12,8,1) occ(23,8,5) occ(28,8,3) occ(38,8,4) occ(58,8,6) occ(72,8,9) occ(77,8,8) occ(80,8,7) occ(86,8,2) occ(16,9,4) occ(26,9,1) occ(27,9,6) occ(32,9,2) occ(62,9,9) occ(76,9,8) occ(81,9,7) occ(82,9,5) occ(90,9,3) occ(14,10,2) occ(30,10,4) occ(60,10,7) occ(74,10,10) occ(78,10,6) occ(79,10,9) occ(84,10,3) occ(88,10,1) occ(92,10,5)
Optimization: -93
*** Info : (clingo): INTERRUPTED by signal!
SATISFIABLE

TIME LIMIT   : 1
Models       : 22+
  Optimum    : unknown
Optimization : -93
Calls        : 1
Time         : 300.000s (Solving: 298.55s 1st Model: 0.00s Unsat: 0.00s)
CPU Time     : 300.000s
